SCIP version 9.0.0 [precision: 8 byte] [memory: block] [mode: optimized] [LP solver: Soplex 7.0.0] [GitHash: 7205bedd94]
Copyright (c) 2002-2024 Zuse Institute Berlin (ZIB)

External libraries:
  Soplex 7.0.0         Linear Programming Solver developed at Zuse Institute Berlin (soplex.zib.de) [GitHash: 6657fb3b]
  CppAD 20180000.0     Algorithmic Differentiation of C++ algorithms developed by B. Bell (github.com/coin-or/CppAD)
  ZLIB 1.2.13          General purpose compression library by J. Gailly and M. Adler (zlib.net)
  GMP 6.3.0            GNU Multiple Precision Arithmetic Library developed by T. Granlund (gmplib.org)
  ZIMPL 3.5.3          Zuse Institute Mathematical Programming Language developed by T. Koch (zimpl.zib.de)
  AMPL/MP 690e9e7      AMPL .nl file reader library (github.com/ampl/mp)
  PaPILO 2.2.0         parallel presolve for integer and linear optimization (github.com/scipopt/papilo) (built with TBB) [GitHash: df30ae49]
  bliss 0.77           Computing Graph Automorphism Groups by T. Junttila and P. Kaski (users.aalto.fi/~tjunttil/bliss)
  Ipopt 3.14.15        Interior Point Optimizer developed by A. Waechter et.al. (github.com/coin-or/Ipopt)

reading user parameter file </var/folders/xx/fsz3wvqx27n46ckqdt6dl4gm0000gn/T/653b61a34d584f1c9aa1480f9f12885d-pulp.set>


read problem </var/folders/xx/fsz3wvqx27n46ckqdt6dl4gm0000gn/T/653b61a34d584f1c9aa1480f9f12885d-pulp.lp>
============

original problem has 90 variables (84 bin, 6 int, 0 impl, 0 cont) and 113 constraints

presolving:
(round 1, fast)       0 del vars, 1 del conss, 1 add conss, 9 chg bounds, 0 chg sides, 0 chg coeffs, 0 upgd conss, 0 impls, 7 clqs
(round 2, fast)       0 del vars, 1 del conss, 1 add conss, 9 chg bounds, 28 chg sides, 28 chg coeffs, 0 upgd conss, 0 impls, 7 clqs
   (0.0s) running MILP presolver
   (0.0s) MILP presolver found nothing
(round 3, exhaustive) 0 del vars, 1 del conss, 1 add conss, 9 chg bounds, 29 chg sides, 28 chg coeffs, 0 upgd conss, 0 impls, 7 clqs
(round 4, exhaustive) 0 del vars, 1 del conss, 1 add conss, 9 chg bounds, 29 chg sides, 28 chg coeffs, 105 upgd conss, 0 impls, 7 clqs
   (0.0s) sparsify finished: 59/792 (7.4%) nonzeros canceled - in total 59 canceled nonzeros, 121 changed coefficients, 0 added nonzeros
(round 5, exhaustive) 0 del vars, 1 del conss, 1 add conss, 9 chg bounds, 29 chg sides, 149 chg coeffs, 105 upgd conss, 0 impls, 21 clqs
(round 6, fast)       0 del vars, 1 del conss, 2 add conss, 11 chg bounds, 29 chg sides, 149 chg coeffs, 105 upgd conss, 0 impls, 21 clqs
(round 7, fast)       0 del vars, 1 del conss, 2 add conss, 11 chg bounds, 29 chg sides, 156 chg coeffs, 105 upgd conss, 0 impls, 21 clqs
(round 8, exhaustive) 0 del vars, 2 del conss, 2 add conss, 11 chg bounds, 29 chg sides, 156 chg coeffs, 105 upgd conss, 0 impls, 21 clqs
   (0.0s) probing cycle finished: starting next cycle
   (0.0s) symmetry computation started: requiring (bin +, int +, cont +), (fixed: bin -, int -, cont -)
   (0.0s) symmetry computation finished: 2 generators found (max: 1500, log10 of symmetry group size: 1.1) (symcode time: 0.00)
dynamic symmetry handling statistics:
   orbitopal reduction:       no components
   orbital reduction:          1 components of sizes 2
   lexicographic reduction:    2 permutations with support sizes 76, 84
handled 1 out of 1 symmetry components
presolving (9 rounds: 9 fast, 5 medium, 5 exhaustive):
 0 deleted vars, 2 deleted constraints, 2 added constraints, 11 tightened bounds, 0 added holes, 29 changed sides, 156 changed coefficients
 128 implications, 758 cliques
presolved problem has 90 variables (85 bin, 4 int, 1 impl, 0 cont) and 113 constraints
     14 constraints of type <knapsack>
      7 constraints of type <setppc>
      8 constraints of type <linear>
     84 constraints of type <logicor>
transformed objective value is always integral (scale: 1)
Presolving Time: 0.01

 time | node  | left  |LP iter|LP it/n|mem/heur|mdpt |vars |cons |rows |cuts |sepa|confs|strbr|  dualbound   | primalbound  |  gap   | compl.
p 0.0s|     1 |     0 |    28 |     - | vbounds|   0 |  90 | 119 | 113 |   0 |  0 |   5 |   0 |      --      | 2.800000e+01 |    Inf | unknown
  0.0s|     1 |     0 |   145 |     - |  3670k |   0 |  90 | 123 | 114 |   0 |  0 |   8 |   0 | 3.533333e+01 | 2.800000e+01 |  26.19%| unknown
  0.0s|     1 |     0 |   154 |     - |  3674k |   0 |  90 | 123 | 114 |   0 |  0 |   8 |   0 | 3.500000e+01 | 2.800000e+01 |  25.00%| unknown
  0.0s|     1 |     0 |   172 |     - |  4219k |   0 |  90 | 226 | 118 |   4 |  1 |   8 |   0 | 3.500000e+01 | 2.800000e+01 |  25.00%| unknown
  0.0s|     1 |     0 |   182 |     - |  4590k |   0 |  90 | 226 | 121 |   7 |  2 |   8 |   0 | 3.500000e+01 | 2.800000e+01 |  25.00%| unknown
  0.0s|     1 |     0 |   216 |     - |  5206k |   0 |  90 | 226 | 123 |   9 |  3 |   8 |   0 | 3.500000e+01 | 2.800000e+01 |  25.00%| unknown
  0.1s|     1 |     0 |   228 |     - |  5553k |   0 |  90 | 226 | 126 |  12 |  4 |   8 |   0 | 3.500000e+01 | 2.800000e+01 |  25.00%| unknown
  0.1s|     1 |     0 |   237 |     - |  5978k |   0 |  90 | 226 | 129 |  15 |  5 |   8 |   0 | 3.500000e+01 | 2.800000e+01 |  25.00%| unknown
  0.1s|     1 |     0 |   267 |     - |  6025k |   0 |  90 | 226 | 132 |  18 |  6 |   8 |   0 | 3.500000e+01 | 2.800000e+01 |  25.00%| unknown
  0.1s|     1 |     0 |   338 |     - |  6866k |   0 |  90 | 226 | 136 |  22 |  7 |   8 |   0 | 3.499148e+01 | 2.800000e+01 |  24.97%| unknown
  0.1s|     1 |     0 |   351 |     - |  6868k |   0 |  90 | 226 | 136 |  22 |  7 |   8 |   0 | 3.400000e+01 | 2.800000e+01 |  21.43%| unknown
  0.1s|     1 |     0 |   371 |     - |  7634k |   0 |  90 | 226 | 140 |  26 |  8 |   8 |   0 | 3.400000e+01 | 2.800000e+01 |  21.43%| unknown
  0.1s|     1 |     0 |   389 |     - |  9275k |   0 |  90 | 227 | 144 |  30 |  9 |   9 |   0 | 3.400000e+01 | 2.800000e+01 |  21.43%| unknown
  0.1s|     1 |     0 |   407 |     - |    10M |   0 |  90 | 228 | 146 |  32 | 10 |  10 |   0 | 3.400000e+01 | 2.800000e+01 |  21.43%| unknown
  0.1s|     1 |     0 |   411 |     - |    10M |   0 |  90 | 228 | 149 |  35 | 11 |  10 |   0 | 3.400000e+01 | 2.800000e+01 |  21.43%| unknown
 time | node  | left  |LP iter|LP it/n|mem/heur|mdpt |vars |cons |rows |cuts |sepa|confs|strbr|  dualbound   | primalbound  |  gap   | compl.
  0.1s|     1 |     0 |   421 |     - |    10M |   0 |  90 | 228 | 151 |  37 | 12 |  10 |   0 | 3.400000e+01 | 2.800000e+01 |  21.43%| unknown
  0.1s|     1 |     0 |   431 |     - |    10M |   0 |  90 | 228 | 143 |  40 | 13 |  10 |   0 | 3.400000e+01 | 2.800000e+01 |  21.43%| unknown
  0.1s|     1 |     0 |   433 |     - |    10M |   0 |  90 | 229 | 147 |  44 | 14 |  11 |   0 | 3.400000e+01 | 2.800000e+01 |  21.43%| unknown
  0.1s|     1 |     0 |   445 |     - |    10M |   0 |  90 | 229 | 148 |  45 | 15 |  11 |   0 | 3.400000e+01 | 2.800000e+01 |  21.43%| unknown
  0.1s|     1 |     0 |   447 |     - |    10M |   0 |  90 | 229 | 149 |  46 | 16 |  11 |   0 | 3.400000e+01 | 2.800000e+01 |  21.43%| unknown
  0.1s|     1 |     0 |   461 |     - |    10M |   0 |  90 | 229 | 150 |  47 | 17 |  11 |   0 | 3.400000e+01 | 2.800000e+01 |  21.43%| unknown
  0.1s|     1 |     0 |   470 |     - |    10M |   0 |  90 | 229 | 153 |  50 | 18 |  11 |   0 | 3.400000e+01 | 2.800000e+01 |  21.43%| unknown
d 0.1s|     1 |     0 |   878 |     - |conflict|   0 |  90 | 230 | 153 |   0 | 18 |  12 |   0 | 3.400000e+01 | 3.000000e+01 |  13.33%| unknown
  0.1s|     1 |     0 |   890 |     - |    10M |   0 |  90 | 230 | 153 |  50 | 18 |  12 |   0 | 3.400000e+01 | 3.000000e+01 |  13.33%| unknown
  0.1s|     1 |     0 |   901 |     - |    10M |   0 |  90 | 230 | 155 |  52 | 19 |  12 |   0 | 3.400000e+01 | 3.000000e+01 |  13.33%| unknown
  0.1s|     1 |     2 |   910 |     - |    10M |   0 |  90 | 231 | 155 |  52 | 20 |  13 |  12 | 3.400000e+01 | 3.000000e+01 |  13.33%| unknown
* 0.1s|     8 |     3 |   935 |  68.9 |    LP  |   5 |  90 | 233 | 116 |  52 |  0 |  17 |  12 | 3.400000e+01 | 3.300000e+01 |   3.03%|   3.44%

SCIP Status        : problem is solved [optimal solution found]
Solving Time (sec) : 0.13
Solving Nodes      : 29
Primal Bound       : +3.30000000000000e+01 (3 solutions)
Dual Bound         : +3.30000000000000e+01
Gap                : 0.00 %


solution status: optimal solution found
objective value:                                   33
f_{1,00213}                                         1 	(obj:0)
f_{2,00213}                                         1 	(obj:0)
f_{3,00105}                                         1 	(obj:0)
f_{4,20112}                                         1 	(obj:0)
f_{6,02112}                                         1 	(obj:0)
g_{0,02112}                                         1 	(obj:0)
g_{5,20112}                                         1 	(obj:0)
N                                                  33 	(obj:1)
f_{02012}                                           3 	(obj:0)
f_{20012}                                           3 	(obj:0)
s                                                  12 	(obj:0)
written solution information to file </var/folders/xx/fsz3wvqx27n46ckqdt6dl4gm0000gn/T/653b61a34d584f1c9aa1480f9f12885d-pulp.sol>


SCIP version 9.0.0 [precision: 8 byte] [memory: block] [mode: optimized] [LP solver: Soplex 7.0.0] [GitHash: 7205bedd94]
Copyright (c) 2002-2024 Zuse Institute Berlin (ZIB)

External libraries: 
  Soplex 7.0.0         Linear Programming Solver developed at Zuse Institute Berlin (soplex.zib.de) [GitHash: 6657fb3b]
  CppAD 20180000.0     Algorithmic Differentiation of C++ algorithms developed by B. Bell (github.com/coin-or/CppAD)
  ZLIB 1.2.13          General purpose compression library by J. Gailly and M. Adler (zlib.net)
  GMP 6.3.0            GNU Multiple Precision Arithmetic Library developed by T. Granlund (gmplib.org)
  ZIMPL 3.5.3          Zuse Institute Mathematical Programming Language developed by T. Koch (zimpl.zib.de)
  AMPL/MP 690e9e7      AMPL .nl file reader library (github.com/ampl/mp)
  PaPILO 2.2.0         parallel presolve for integer and linear optimization (github.com/scipopt/papilo) (built with TBB) [GitHash: df30ae49]
  bliss 0.77           Computing Graph Automorphism Groups by T. Junttila and P. Kaski (users.aalto.fi/~tjunttil/bliss)
  Ipopt 3.14.15        Interior Point Optimizer developed by A. Waechter et.al. (github.com/coin-or/Ipopt)

reading user parameter file </var/folders/xx/fsz3wvqx27n46ckqdt6dl4gm0000gn/T/67f32004557143e796fbf5a6e8d51c5a-pulp.set>


read problem </var/folders/xx/fsz3wvqx27n46ckqdt6dl4gm0000gn/T/67f32004557143e796fbf5a6e8d51c5a-pulp.lp>
============

original problem has 90 variables (84 bin, 6 int, 0 impl, 0 cont) and 113 constraints

presolving:
(round 1, fast)       0 del vars, 1 del conss, 1 add conss, 9 chg bounds, 0 chg sides, 0 chg coeffs, 0 upgd conss, 0 impls, 7 clqs
(round 2, fast)       0 del vars, 1 del conss, 1 add conss, 9 chg bounds, 28 chg sides, 28 chg coeffs, 0 upgd conss, 0 impls, 7 clqs
   (0.0s) running MILP presolver
   (0.0s) MILP presolver found nothing
(round 3, exhaustive) 0 del vars, 1 del conss, 1 add conss, 9 chg bounds, 29 chg sides, 28 chg coeffs, 0 upgd conss, 0 impls, 7 clqs
(round 4, exhaustive) 0 del vars, 1 del conss, 1 add conss, 9 chg bounds, 29 chg sides, 28 chg coeffs, 105 upgd conss, 0 impls, 7 clqs
   (0.0s) sparsify finished: 59/792 (7.4%) nonzeros canceled - in total 59 canceled nonzeros, 121 changed coefficients, 0 added nonzeros
(round 5, exhaustive) 0 del vars, 1 del conss, 1 add conss, 9 chg bounds, 29 chg sides, 149 chg coeffs, 105 upgd conss, 0 impls, 21 clqs
(round 6, fast)       0 del vars, 1 del conss, 2 add conss, 11 chg bounds, 29 chg sides, 149 chg coeffs, 105 upgd conss, 0 impls, 21 clqs
(round 7, fast)       0 del vars, 1 del conss, 2 add conss, 11 chg bounds, 29 chg sides, 156 chg coeffs, 105 upgd conss, 0 impls, 21 clqs
(round 8, exhaustive) 0 del vars, 2 del conss, 2 add conss, 11 chg bounds, 29 chg sides, 156 chg coeffs, 105 upgd conss, 0 impls, 21 clqs
   (0.0s) probing cycle finished: starting next cycle
   (0.0s) symmetry computation started: requiring (bin +, int +, cont +), (fixed: bin -, int -, cont -)
   (0.0s) symmetry computation finished: 2 generators found (max: 1500, log10 of symmetry group size: 1.1) (symcode time: 0.00)
dynamic symmetry handling statistics:
   orbitopal reduction:       no components
   orbital reduction:          1 components of sizes 2
   lexicographic reduction:    2 permutations with support sizes 76, 84
handled 1 out of 1 symmetry components
presolving (9 rounds: 9 fast, 5 medium, 5 exhaustive):
 0 deleted vars, 2 deleted constraints, 2 added constraints, 11 tightened bounds, 0 added holes, 29 changed sides, 156 changed coefficients
 128 implications, 758 cliques
presolved problem has 90 variables (85 bin, 4 int, 1 impl, 0 cont) and 113 constraints
     14 constraints of type <knapsack>
      7 constraints of type <setppc>
      8 constraints of type <linear>
     84 constraints of type <logicor>
transformed objective value is always integral (scale: 1)
Presolving Time: 0.01

 time | node  | left  |LP iter|LP it/n|mem/heur|mdpt |vars |cons |rows |cuts |sepa|confs|strbr|  dualbound   | primalbound  |  gap   | compl. 
p 0.0s|     1 |     0 |    28 |     - | vbounds|   0 |  90 | 119 | 113 |   0 |  0 |   5 |   0 |      --      | 2.800000e+01 |    Inf | unknown
  0.0s|     1 |     0 |   145 |     - |  3670k |   0 |  90 | 123 | 114 |   0 |  0 |   8 |   0 | 3.533333e+01 | 2.800000e+01 |  26.19%| unknown
  0.0s|     1 |     0 |   154 |     - |  3674k |   0 |  90 | 123 | 114 |   0 |  0 |   8 |   0 | 3.500000e+01 | 2.800000e+01 |  25.00%| unknown
  0.0s|     1 |     0 |   172 |     - |  4219k |   0 |  90 | 226 | 118 |   4 |  1 |   8 |   0 | 3.500000e+01 | 2.800000e+01 |  25.00%| unknown
  0.0s|     1 |     0 |   182 |     - |  4590k |   0 |  90 | 226 | 121 |   7 |  2 |   8 |   0 | 3.500000e+01 | 2.800000e+01 |  25.00%| unknown
  0.0s|     1 |     0 |   216 |     - |  5206k |   0 |  90 | 226 | 123 |   9 |  3 |   8 |   0 | 3.500000e+01 | 2.800000e+01 |  25.00%| unknown
  0.0s|     1 |     0 |   228 |     - |  5553k |   0 |  90 | 226 | 126 |  12 |  4 |   8 |   0 | 3.500000e+01 | 2.800000e+01 |  25.00%| unknown
  0.0s|     1 |     0 |   237 |     - |  5978k |   0 |  90 | 226 | 129 |  15 |  5 |   8 |   0 | 3.500000e+01 | 2.800000e+01 |  25.00%| unknown
  0.0s|     1 |     0 |   267 |     - |  6025k |   0 |  90 | 226 | 132 |  18 |  6 |   8 |   0 | 3.500000e+01 | 2.800000e+01 |  25.00%| unknown
  0.0s|     1 |     0 |   338 |     - |  6866k |   0 |  90 | 226 | 136 |  22 |  7 |   8 |   0 | 3.499148e+01 | 2.800000e+01 |  24.97%| unknown
  0.1s|     1 |     0 |   351 |     - |  6868k |   0 |  90 | 226 | 136 |  22 |  7 |   8 |   0 | 3.400000e+01 | 2.800000e+01 |  21.43%| unknown
  0.1s|     1 |     0 |   371 |     - |  7634k |   0 |  90 | 226 | 140 |  26 |  8 |   8 |   0 | 3.400000e+01 | 2.800000e+01 |  21.43%| unknown
  0.1s|     1 |     0 |   389 |     - |  9275k |   0 |  90 | 227 | 144 |  30 |  9 |   9 |   0 | 3.400000e+01 | 2.800000e+01 |  21.43%| unknown
  0.1s|     1 |     0 |   407 |     - |    10M |   0 |  90 | 228 | 146 |  32 | 10 |  10 |   0 | 3.400000e+01 | 2.800000e+01 |  21.43%| unknown
  0.1s|     1 |     0 |   411 |     - |    10M |   0 |  90 | 228 | 149 |  35 | 11 |  10 |   0 | 3.400000e+01 | 2.800000e+01 |  21.43%| unknown
 time | node  | left  |LP iter|LP it/n|mem/heur|mdpt |vars |cons |rows |cuts |sepa|confs|strbr|  dualbound   | primalbound  |  gap   | compl. 
  0.1s|     1 |     0 |   421 |     - |    10M |   0 |  90 | 228 | 151 |  37 | 12 |  10 |   0 | 3.400000e+01 | 2.800000e+01 |  21.43%| unknown
  0.1s|     1 |     0 |   431 |     - |    10M |   0 |  90 | 228 | 143 |  40 | 13 |  10 |   0 | 3.400000e+01 | 2.800000e+01 |  21.43%| unknown
  0.1s|     1 |     0 |   433 |     - |    10M |   0 |  90 | 229 | 147 |  44 | 14 |  11 |   0 | 3.400000e+01 | 2.800000e+01 |  21.43%| unknown
  0.1s|     1 |     0 |   445 |     - |    10M |   0 |  90 | 229 | 148 |  45 | 15 |  11 |   0 | 3.400000e+01 | 2.800000e+01 |  21.43%| unknown
  0.1s|     1 |     0 |   447 |     - |    10M |   0 |  90 | 229 | 149 |  46 | 16 |  11 |   0 | 3.400000e+01 | 2.800000e+01 |  21.43%| unknown
  0.1s|     1 |     0 |   461 |     - |    10M |   0 |  90 | 229 | 150 |  47 | 17 |  11 |   0 | 3.400000e+01 | 2.800000e+01 |  21.43%| unknown
  0.1s|     1 |     0 |   470 |     - |    10M |   0 |  90 | 229 | 153 |  50 | 18 |  11 |   0 | 3.400000e+01 | 2.800000e+01 |  21.43%| unknown
d 0.1s|     1 |     0 |   878 |     - |conflict|   0 |  90 | 230 | 153 |   0 | 18 |  12 |   0 | 3.400000e+01 | 3.000000e+01 |  13.33%| unknown
  0.1s|     1 |     0 |   890 |     - |    10M |   0 |  90 | 230 | 153 |  50 | 18 |  12 |   0 | 3.400000e+01 | 3.000000e+01 |  13.33%| unknown
  0.1s|     1 |     0 |   901 |     - |    10M |   0 |  90 | 230 | 155 |  52 | 19 |  12 |   0 | 3.400000e+01 | 3.000000e+01 |  13.33%| unknown
  0.1s|     1 |     2 |   910 |     - |    10M |   0 |  90 | 231 | 155 |  52 | 20 |  13 |  12 | 3.400000e+01 | 3.000000e+01 |  13.33%| unknown
* 0.1s|     8 |     3 |   935 |  68.9 |    LP  |   5 |  90 | 233 | 116 |  52 |  0 |  17 |  12 | 3.400000e+01 | 3.300000e+01 |   3.03%|   3.44%

SCIP Status        : problem is solved [optimal solution found]
Solving Time (sec) : 0.12
Solving Nodes      : 29
Primal Bound       : +3.30000000000000e+01 (3 solutions)
Dual Bound         : +3.30000000000000e+01
Gap                : 0.00 %


solution status: optimal solution found
objective value:                                   33
f_{1,00213}                                         1 	(obj:0)
f_{2,00213}                                         1 	(obj:0)
f_{3,00105}                                         1 	(obj:0)
f_{4,20112}                                         1 	(obj:0)
f_{6,02112}                                         1 	(obj:0)
g_{0,02112}                                         1 	(obj:0)
g_{5,20112}                                         1 	(obj:0)
N                                                  33 	(obj:1)
f_{02012}                                           3 	(obj:0)
f_{20012}                                           3 	(obj:0)
s                                                  12 	(obj:0)
written solution information to file </var/folders/xx/fsz3wvqx27n46ckqdt6dl4gm0000gn/T/67f32004557143e796fbf5a6e8d51c5a-pulp.sol>


